&input
  fildyn = 'Graphene.dyn'
  zasr = 'simple'
  flfrc = 'Graphene.fc'
/