&CONTROL
  calculation = 'scf'
  outdir = './out/'
  prefix = 'Graphene'
  pseudo_dir = './pseudo/'
/
&SYSTEM
  degauss =   0.01
  ecutrho =   360
  ecutwfc =   45
  ibrav = 0
  nat = 2
  ntyp = 1
  occupations = 'smearing'
  smearing = 'fd'
/
&ELECTRONS
  conv_thr =   1.0000000000d-8
/
ATOMIC_SPECIES
C      12.0107 C.pbe-n-kjpaw_psl.1.0.0.UPF
ATOMIC_POSITIONS crystal
C            0.0000000000       0.0000000000       0.500000000 
C            0.6666666700       0.3333333300       0.500000000 
K_POINTS automatic
15 15 1 0 0 0
CELL_PARAMETERS angstrom
      2.4677241400       0.0000000000       0.0000000000
     -1.2338620700       2.1371117948       0.0000000000
      0.0000000000       0.0000000000       8.6850380000
