&bands
outdir = './out'
prefix = 'Cu'
filband = 'Cu.bands.dat'
/