&CONTROL
  calculation = 'scf'
  outdir = './out/'
  prefix = 'Cu'
  pseudo_dir = './'
/
&SYSTEM
  degauss =   0.01
  ecutwfc =   100
  ibrav = 0
  nat = 1
  ntyp = 1
  occupations = 'smearing'
  smearing = 'fd'
/
&ELECTRONS
  conv_thr =   1d-8
  mixing_mode='local-TF'
/
ATOMIC_SPECIES
Cu     63.546 Cu.pbe-dn-kjpaw_psl.1.0.0.UPF
ATOMIC_POSITIONS crystal
Cu           0.0000000000       0.0000000000       0.0000000000 

K_POINTS automatic
4 4 4 0 0 0

CELL_PARAMETERS angstrom
      2.5606189200       0.0000000000       0.0000000000
      1.2803094600       2.2175610341       0.0000000000
      1.2803094600       0.7391870114       2.0907365932