&control
    calculation = 'bands'
    prefix = 'Graphene'
    outdir = './outdir'
    pseudo_dir = '../PP'
    etot_conv_thr = 1e-5
    forc_conv_thr = 1e-4
/
&system
    ibrav=0
    nat=2
    ntyp=1
    ecutwfc=45
    ecutrho=360
    occupations = "smearing"
    smearing    = "gaussian"
    degauss=0.03
    nbnd = 10
/
&electrons
    conv_thr=1e-8
/

&ions
/

&cell
/

ATOMIC_SPECIES
C  12.0107  C.pbe-n-kjpaw_psl.1.0.0.UPF


CELL_PARAMETERS (angstrom) 
   2.467066723   0.000000000   0.000000000
  -1.233533361   2.136542455   0.000000000
  -0.000000000   0.000000000   8.415085294


ATOMIC_POSITIONS {crystal}
C             0.0000000000        0.0000000000        0.5000000000
C             0.6666666666        0.3333333333        0.5000000000


K_POINTS crystal_b
4
0.3333333333 0.3333333333 0.000000000 100 ! K
0.0000000000 0.0000000000 0.000000000 100 ! G
0.0000000000 0.5000000000 0.000000000 100 ! M
0.3333333333 0.3333333333 0.000000000 1 ! K