&bands
outdir = './outdir'
prefix = 'Graphene'
filband = 'bands.dat'
/