&bands
outdir = './out'
prefix = 'TiSe2'
filband = 'bands.dat'
!plot_2d=.true
/