 &projwfc
    outdir='./out/'
    prefix='TiSe2'
    ngauss=0, degauss=0.01
    DeltaE=0.01
    kresolveddos=.true.
    filpdos='TiSe2.k'
 /
