&CONTROL
  calculation = 'scf'
  etot_conv_thr =   3.0000000000d-05
  forc_conv_thr =   1.0000000000d-04
  outdir = './out/'
  prefix = 'aiida'
  pseudo_dir = './pseudo/'
  tprnfor = .true.
  tstress = .true.
  verbosity = 'high'
/
&SYSTEM
  degauss =   1.4699723600d-02
  ecutrho =   3.2000000000d+02
  ecutwfc =   4.0000000000d+01
  ibrav = 0
  nat = 3
  nosym = .false.
  ntyp = 2
  occupations = 'smearing'
  smearing = 'cold'
/
&ELECTRONS
  conv_thr =   6.0000000000d-10
  electron_maxstep = 80
  mixing_beta =   4.0000000000d-01
/
ATOMIC_SPECIES
Se     78.96 Se_pbe_v1.uspp.F.UPF
Ti     47.867 ti_pbe_v1.4.uspp.F.UPF
ATOMIC_POSITIONS crystal
Ti           0.0000000000       0.0000000000       0.0000000000 
Se           0.3333333300       0.6666666700       0.2311810000 
Se           0.6666666700       0.3333333300       0.7688190000 
K_POINTS automatic
11 11 5 0 0 0
CELL_PARAMETERS angstrom
      3.5442620600       0.0000000000       0.0000000000
     -1.7721310300       3.0694209816       0.0000000000
      0.0000000000       0.0000000000       6.6938060000
