&CONTROL
  calculation = 'nscf'
  outdir = './out/'
  prefix = 'TiSe2'
  pseudo_dir = './pseudo/'
/
&SYSTEM
  degauss =   0.01
  ecutrho =   320
  ecutwfc =   40
  ibrav = 0
  nat = 3
  ntyp = 2
  occupations = 'smearing'
  smearing = 'fd'
/
&ELECTRONS
  conv_thr =   1.0000000000d-8
/
ATOMIC_SPECIES
Se     78.96 Se_pbe_v1.uspp.F.UPF
Ti     47.867 ti_pbe_v1.4.uspp.F.UPF
ATOMIC_POSITIONS crystal
Ti           0.0000000000       0.0000000000       0.0000000000 
Se           0.3333333300       0.6666666700       0.2311810000 
Se           0.6666666700       0.3333333300       0.7688190000 

CELL_PARAMETERS angstrom
      3.5442620600       0.0000000000       0.0000000000
     -1.7721310300       3.0694209816       0.0000000000
      0.0000000000       0.0000000000       6.6938060000


K_POINTS crystal
256
  0.00000000  0.00000000  0.00000000  3.906250e-03
  0.00000000  0.06250000  0.00000000  3.906250e-03
  0.00000000  0.12500000  0.00000000  3.906250e-03
  0.00000000  0.18750000  0.00000000  3.906250e-03
  0.00000000  0.25000000  0.00000000  3.906250e-03
  0.00000000  0.31250000  0.00000000  3.906250e-03
  0.00000000  0.37500000  0.00000000  3.906250e-03
  0.00000000  0.43750000  0.00000000  3.906250e-03
  0.00000000  0.50000000  0.00000000  3.906250e-03
  0.00000000  0.56250000  0.00000000  3.906250e-03
  0.00000000  0.62500000  0.00000000  3.906250e-03
  0.00000000  0.68750000  0.00000000  3.906250e-03
  0.00000000  0.75000000  0.00000000  3.906250e-03
  0.00000000  0.81250000  0.00000000  3.906250e-03
  0.00000000  0.87500000  0.00000000  3.906250e-03
  0.00000000  0.93750000  0.00000000  3.906250e-03
  0.06250000  0.00000000  0.00000000  3.906250e-03
  0.06250000  0.06250000  0.00000000  3.906250e-03
  0.06250000  0.12500000  0.00000000  3.906250e-03
  0.06250000  0.18750000  0.00000000  3.906250e-03
  0.06250000  0.25000000  0.00000000  3.906250e-03
  0.06250000  0.31250000  0.00000000  3.906250e-03
  0.06250000  0.37500000  0.00000000  3.906250e-03
  0.06250000  0.43750000  0.00000000  3.906250e-03
  0.06250000  0.50000000  0.00000000  3.906250e-03
  0.06250000  0.56250000  0.00000000  3.906250e-03
  0.06250000  0.62500000  0.00000000  3.906250e-03
  0.06250000  0.68750000  0.00000000  3.906250e-03
  0.06250000  0.75000000  0.00000000  3.906250e-03
  0.06250000  0.81250000  0.00000000  3.906250e-03
  0.06250000  0.87500000  0.00000000  3.906250e-03
  0.06250000  0.93750000  0.00000000  3.906250e-03
  0.12500000  0.00000000  0.00000000  3.906250e-03
  0.12500000  0.06250000  0.00000000  3.906250e-03
  0.12500000  0.12500000  0.00000000  3.906250e-03
  0.12500000  0.18750000  0.00000000  3.906250e-03
  0.12500000  0.25000000  0.00000000  3.906250e-03
  0.12500000  0.31250000  0.00000000  3.906250e-03
  0.12500000  0.37500000  0.00000000  3.906250e-03
  0.12500000  0.43750000  0.00000000  3.906250e-03
  0.12500000  0.50000000  0.00000000  3.906250e-03
  0.12500000  0.56250000  0.00000000  3.906250e-03
  0.12500000  0.62500000  0.00000000  3.906250e-03
  0.12500000  0.68750000  0.00000000  3.906250e-03
  0.12500000  0.75000000  0.00000000  3.906250e-03
  0.12500000  0.81250000  0.00000000  3.906250e-03
  0.12500000  0.87500000  0.00000000  3.906250e-03
  0.12500000  0.93750000  0.00000000  3.906250e-03
  0.18750000  0.00000000  0.00000000  3.906250e-03
  0.18750000  0.06250000  0.00000000  3.906250e-03
  0.18750000  0.12500000  0.00000000  3.906250e-03
  0.18750000  0.18750000  0.00000000  3.906250e-03
  0.18750000  0.25000000  0.00000000  3.906250e-03
  0.18750000  0.31250000  0.00000000  3.906250e-03
  0.18750000  0.37500000  0.00000000  3.906250e-03
  0.18750000  0.43750000  0.00000000  3.906250e-03
  0.18750000  0.50000000  0.00000000  3.906250e-03
  0.18750000  0.56250000  0.00000000  3.906250e-03
  0.18750000  0.62500000  0.00000000  3.906250e-03
  0.18750000  0.68750000  0.00000000  3.906250e-03
  0.18750000  0.75000000  0.00000000  3.906250e-03
  0.18750000  0.81250000  0.00000000  3.906250e-03
  0.18750000  0.87500000  0.00000000  3.906250e-03
  0.18750000  0.93750000  0.00000000  3.906250e-03
  0.25000000  0.00000000  0.00000000  3.906250e-03
  0.25000000  0.06250000  0.00000000  3.906250e-03
  0.25000000  0.12500000  0.00000000  3.906250e-03
  0.25000000  0.18750000  0.00000000  3.906250e-03
  0.25000000  0.25000000  0.00000000  3.906250e-03
  0.25000000  0.31250000  0.00000000  3.906250e-03
  0.25000000  0.37500000  0.00000000  3.906250e-03
  0.25000000  0.43750000  0.00000000  3.906250e-03
  0.25000000  0.50000000  0.00000000  3.906250e-03
  0.25000000  0.56250000  0.00000000  3.906250e-03
  0.25000000  0.62500000  0.00000000  3.906250e-03
  0.25000000  0.68750000  0.00000000  3.906250e-03
  0.25000000  0.75000000  0.00000000  3.906250e-03
  0.25000000  0.81250000  0.00000000  3.906250e-03
  0.25000000  0.87500000  0.00000000  3.906250e-03
  0.25000000  0.93750000  0.00000000  3.906250e-03
  0.31250000  0.00000000  0.00000000  3.906250e-03
  0.31250000  0.06250000  0.00000000  3.906250e-03
  0.31250000  0.12500000  0.00000000  3.906250e-03
  0.31250000  0.18750000  0.00000000  3.906250e-03
  0.31250000  0.25000000  0.00000000  3.906250e-03
  0.31250000  0.31250000  0.00000000  3.906250e-03
  0.31250000  0.37500000  0.00000000  3.906250e-03
  0.31250000  0.43750000  0.00000000  3.906250e-03
  0.31250000  0.50000000  0.00000000  3.906250e-03
  0.31250000  0.56250000  0.00000000  3.906250e-03
  0.31250000  0.62500000  0.00000000  3.906250e-03
  0.31250000  0.68750000  0.00000000  3.906250e-03
  0.31250000  0.75000000  0.00000000  3.906250e-03
  0.31250000  0.81250000  0.00000000  3.906250e-03
  0.31250000  0.87500000  0.00000000  3.906250e-03
  0.31250000  0.93750000  0.00000000  3.906250e-03
  0.37500000  0.00000000  0.00000000  3.906250e-03
  0.37500000  0.06250000  0.00000000  3.906250e-03
  0.37500000  0.12500000  0.00000000  3.906250e-03
  0.37500000  0.18750000  0.00000000  3.906250e-03
  0.37500000  0.25000000  0.00000000  3.906250e-03
  0.37500000  0.31250000  0.00000000  3.906250e-03
  0.37500000  0.37500000  0.00000000  3.906250e-03
  0.37500000  0.43750000  0.00000000  3.906250e-03
  0.37500000  0.50000000  0.00000000  3.906250e-03
  0.37500000  0.56250000  0.00000000  3.906250e-03
  0.37500000  0.62500000  0.00000000  3.906250e-03
  0.37500000  0.68750000  0.00000000  3.906250e-03
  0.37500000  0.75000000  0.00000000  3.906250e-03
  0.37500000  0.81250000  0.00000000  3.906250e-03
  0.37500000  0.87500000  0.00000000  3.906250e-03
  0.37500000  0.93750000  0.00000000  3.906250e-03
  0.43750000  0.00000000  0.00000000  3.906250e-03
  0.43750000  0.06250000  0.00000000  3.906250e-03
  0.43750000  0.12500000  0.00000000  3.906250e-03
  0.43750000  0.18750000  0.00000000  3.906250e-03
  0.43750000  0.25000000  0.00000000  3.906250e-03
  0.43750000  0.31250000  0.00000000  3.906250e-03
  0.43750000  0.37500000  0.00000000  3.906250e-03
  0.43750000  0.43750000  0.00000000  3.906250e-03
  0.43750000  0.50000000  0.00000000  3.906250e-03
  0.43750000  0.56250000  0.00000000  3.906250e-03
  0.43750000  0.62500000  0.00000000  3.906250e-03
  0.43750000  0.68750000  0.00000000  3.906250e-03
  0.43750000  0.75000000  0.00000000  3.906250e-03
  0.43750000  0.81250000  0.00000000  3.906250e-03
  0.43750000  0.87500000  0.00000000  3.906250e-03
  0.43750000  0.93750000  0.00000000  3.906250e-03
  0.50000000  0.00000000  0.00000000  3.906250e-03
  0.50000000  0.06250000  0.00000000  3.906250e-03
  0.50000000  0.12500000  0.00000000  3.906250e-03
  0.50000000  0.18750000  0.00000000  3.906250e-03
  0.50000000  0.25000000  0.00000000  3.906250e-03
  0.50000000  0.31250000  0.00000000  3.906250e-03
  0.50000000  0.37500000  0.00000000  3.906250e-03
  0.50000000  0.43750000  0.00000000  3.906250e-03
  0.50000000  0.50000000  0.00000000  3.906250e-03
  0.50000000  0.56250000  0.00000000  3.906250e-03
  0.50000000  0.62500000  0.00000000  3.906250e-03
  0.50000000  0.68750000  0.00000000  3.906250e-03
  0.50000000  0.75000000  0.00000000  3.906250e-03
  0.50000000  0.81250000  0.00000000  3.906250e-03
  0.50000000  0.87500000  0.00000000  3.906250e-03
  0.50000000  0.93750000  0.00000000  3.906250e-03
  0.56250000  0.00000000  0.00000000  3.906250e-03
  0.56250000  0.06250000  0.00000000  3.906250e-03
  0.56250000  0.12500000  0.00000000  3.906250e-03
  0.56250000  0.18750000  0.00000000  3.906250e-03
  0.56250000  0.25000000  0.00000000  3.906250e-03
  0.56250000  0.31250000  0.00000000  3.906250e-03
  0.56250000  0.37500000  0.00000000  3.906250e-03
  0.56250000  0.43750000  0.00000000  3.906250e-03
  0.56250000  0.50000000  0.00000000  3.906250e-03
  0.56250000  0.56250000  0.00000000  3.906250e-03
  0.56250000  0.62500000  0.00000000  3.906250e-03
  0.56250000  0.68750000  0.00000000  3.906250e-03
  0.56250000  0.75000000  0.00000000  3.906250e-03
  0.56250000  0.81250000  0.00000000  3.906250e-03
  0.56250000  0.87500000  0.00000000  3.906250e-03
  0.56250000  0.93750000  0.00000000  3.906250e-03
  0.62500000  0.00000000  0.00000000  3.906250e-03
  0.62500000  0.06250000  0.00000000  3.906250e-03
  0.62500000  0.12500000  0.00000000  3.906250e-03
  0.62500000  0.18750000  0.00000000  3.906250e-03
  0.62500000  0.25000000  0.00000000  3.906250e-03
  0.62500000  0.31250000  0.00000000  3.906250e-03
  0.62500000  0.37500000  0.00000000  3.906250e-03
  0.62500000  0.43750000  0.00000000  3.906250e-03
  0.62500000  0.50000000  0.00000000  3.906250e-03
  0.62500000  0.56250000  0.00000000  3.906250e-03
  0.62500000  0.62500000  0.00000000  3.906250e-03
  0.62500000  0.68750000  0.00000000  3.906250e-03
  0.62500000  0.75000000  0.00000000  3.906250e-03
  0.62500000  0.81250000  0.00000000  3.906250e-03
  0.62500000  0.87500000  0.00000000  3.906250e-03
  0.62500000  0.93750000  0.00000000  3.906250e-03
  0.68750000  0.00000000  0.00000000  3.906250e-03
  0.68750000  0.06250000  0.00000000  3.906250e-03
  0.68750000  0.12500000  0.00000000  3.906250e-03
  0.68750000  0.18750000  0.00000000  3.906250e-03
  0.68750000  0.25000000  0.00000000  3.906250e-03
  0.68750000  0.31250000  0.00000000  3.906250e-03
  0.68750000  0.37500000  0.00000000  3.906250e-03
  0.68750000  0.43750000  0.00000000  3.906250e-03
  0.68750000  0.50000000  0.00000000  3.906250e-03
  0.68750000  0.56250000  0.00000000  3.906250e-03
  0.68750000  0.62500000  0.00000000  3.906250e-03
  0.68750000  0.68750000  0.00000000  3.906250e-03
  0.68750000  0.75000000  0.00000000  3.906250e-03
  0.68750000  0.81250000  0.00000000  3.906250e-03
  0.68750000  0.87500000  0.00000000  3.906250e-03
  0.68750000  0.93750000  0.00000000  3.906250e-03
  0.75000000  0.00000000  0.00000000  3.906250e-03
  0.75000000  0.06250000  0.00000000  3.906250e-03
  0.75000000  0.12500000  0.00000000  3.906250e-03
  0.75000000  0.18750000  0.00000000  3.906250e-03
  0.75000000  0.25000000  0.00000000  3.906250e-03
  0.75000000  0.31250000  0.00000000  3.906250e-03
  0.75000000  0.37500000  0.00000000  3.906250e-03
  0.75000000  0.43750000  0.00000000  3.906250e-03
  0.75000000  0.50000000  0.00000000  3.906250e-03
  0.75000000  0.56250000  0.00000000  3.906250e-03
  0.75000000  0.62500000  0.00000000  3.906250e-03
  0.75000000  0.68750000  0.00000000  3.906250e-03
  0.75000000  0.75000000  0.00000000  3.906250e-03
  0.75000000  0.81250000  0.00000000  3.906250e-03
  0.75000000  0.87500000  0.00000000  3.906250e-03
  0.75000000  0.93750000  0.00000000  3.906250e-03
  0.81250000  0.00000000  0.00000000  3.906250e-03
  0.81250000  0.06250000  0.00000000  3.906250e-03
  0.81250000  0.12500000  0.00000000  3.906250e-03
  0.81250000  0.18750000  0.00000000  3.906250e-03
  0.81250000  0.25000000  0.00000000  3.906250e-03
  0.81250000  0.31250000  0.00000000  3.906250e-03
  0.81250000  0.37500000  0.00000000  3.906250e-03
  0.81250000  0.43750000  0.00000000  3.906250e-03
  0.81250000  0.50000000  0.00000000  3.906250e-03
  0.81250000  0.56250000  0.00000000  3.906250e-03
  0.81250000  0.62500000  0.00000000  3.906250e-03
  0.81250000  0.68750000  0.00000000  3.906250e-03
  0.81250000  0.75000000  0.00000000  3.906250e-03
  0.81250000  0.81250000  0.00000000  3.906250e-03
  0.81250000  0.87500000  0.00000000  3.906250e-03
  0.81250000  0.93750000  0.00000000  3.906250e-03
  0.87500000  0.00000000  0.00000000  3.906250e-03
  0.87500000  0.06250000  0.00000000  3.906250e-03
  0.87500000  0.12500000  0.00000000  3.906250e-03
  0.87500000  0.18750000  0.00000000  3.906250e-03
  0.87500000  0.25000000  0.00000000  3.906250e-03
  0.87500000  0.31250000  0.00000000  3.906250e-03
  0.87500000  0.37500000  0.00000000  3.906250e-03
  0.87500000  0.43750000  0.00000000  3.906250e-03
  0.87500000  0.50000000  0.00000000  3.906250e-03
  0.87500000  0.56250000  0.00000000  3.906250e-03
  0.87500000  0.62500000  0.00000000  3.906250e-03
  0.87500000  0.68750000  0.00000000  3.906250e-03
  0.87500000  0.75000000  0.00000000  3.906250e-03
  0.87500000  0.81250000  0.00000000  3.906250e-03
  0.87500000  0.87500000  0.00000000  3.906250e-03
  0.87500000  0.93750000  0.00000000  3.906250e-03
  0.93750000  0.00000000  0.00000000  3.906250e-03
  0.93750000  0.06250000  0.00000000  3.906250e-03
  0.93750000  0.12500000  0.00000000  3.906250e-03
  0.93750000  0.18750000  0.00000000  3.906250e-03
  0.93750000  0.25000000  0.00000000  3.906250e-03
  0.93750000  0.31250000  0.00000000  3.906250e-03
  0.93750000  0.37500000  0.00000000  3.906250e-03
  0.93750000  0.43750000  0.00000000  3.906250e-03
  0.93750000  0.50000000  0.00000000  3.906250e-03
  0.93750000  0.56250000  0.00000000  3.906250e-03
  0.93750000  0.62500000  0.00000000  3.906250e-03
  0.93750000  0.68750000  0.00000000  3.906250e-03
  0.93750000  0.75000000  0.00000000  3.906250e-03
  0.93750000  0.81250000  0.00000000  3.906250e-03
  0.93750000  0.87500000  0.00000000  3.906250e-03
  0.93750000  0.93750000  0.00000000  3.906250e-03
