num_bands = 16
num_wann = 11

dis_win_min =  -12
dis_win_max =   10

dis_froz_min =  5
dis_froz_max =  7.5

write_hr=T

guiding_centres=T

Begin Projections
Ti:d
Se:p
End Projections

kpath = true
kpath_task = bands
kpath_num_points=1000
bands_plot = true


begin unit_cell_cart
      3.5442620600       0.0000000000       0.0000000000
     -1.7721310300       3.0694209816       0.0000000000
      0.0000000000       0.0000000000       6.6938060000
end unit_cell_cart

begin atoms_frac
Ti           0.0000000000       0.0000000000       0.0000000000 
Se           0.3333333300       0.6666666700       0.2311810000 
Se           0.6666666700       0.3333333300       0.7688190000 
end atoms_frac


begin kpoint_path
G 0.0000000000    0.0000000000     0.0000000000  M 0.0000000000     0.5000000000     0.0000000000  
M 0.0000000000    0.5000000000     0.0000000000  K 0.3333333333     0.3333333333     0.0000000000
K 0.3333333333    0.3333333333     0.0000000000  G 0.0000000000     0.0000000000     0.0000000000
end kpoint_path

mp_grid           = 16 16 1
begin kpoints
  0.00000000  0.00000000  0.00000000  3.906250e-03
  0.00000000  0.06250000  0.00000000  3.906250e-03
  0.00000000  0.12500000  0.00000000  3.906250e-03
  0.00000000  0.18750000  0.00000000  3.906250e-03
  0.00000000  0.25000000  0.00000000  3.906250e-03
  0.00000000  0.31250000  0.00000000  3.906250e-03
  0.00000000  0.37500000  0.00000000  3.906250e-03
  0.00000000  0.43750000  0.00000000  3.906250e-03
  0.00000000  0.50000000  0.00000000  3.906250e-03
  0.00000000  0.56250000  0.00000000  3.906250e-03
  0.00000000  0.62500000  0.00000000  3.906250e-03
  0.00000000  0.68750000  0.00000000  3.906250e-03
  0.00000000  0.75000000  0.00000000  3.906250e-03
  0.00000000  0.81250000  0.00000000  3.906250e-03
  0.00000000  0.87500000  0.00000000  3.906250e-03
  0.00000000  0.93750000  0.00000000  3.906250e-03
  0.06250000  0.00000000  0.00000000  3.906250e-03
  0.06250000  0.06250000  0.00000000  3.906250e-03
  0.06250000  0.12500000  0.00000000  3.906250e-03
  0.06250000  0.18750000  0.00000000  3.906250e-03
  0.06250000  0.25000000  0.00000000  3.906250e-03
  0.06250000  0.31250000  0.00000000  3.906250e-03
  0.06250000  0.37500000  0.00000000  3.906250e-03
  0.06250000  0.43750000  0.00000000  3.906250e-03
  0.06250000  0.50000000  0.00000000  3.906250e-03
  0.06250000  0.56250000  0.00000000  3.906250e-03
  0.06250000  0.62500000  0.00000000  3.906250e-03
  0.06250000  0.68750000  0.00000000  3.906250e-03
  0.06250000  0.75000000  0.00000000  3.906250e-03
  0.06250000  0.81250000  0.00000000  3.906250e-03
  0.06250000  0.87500000  0.00000000  3.906250e-03
  0.06250000  0.93750000  0.00000000  3.906250e-03
  0.12500000  0.00000000  0.00000000  3.906250e-03
  0.12500000  0.06250000  0.00000000  3.906250e-03
  0.12500000  0.12500000  0.00000000  3.906250e-03
  0.12500000  0.18750000  0.00000000  3.906250e-03
  0.12500000  0.25000000  0.00000000  3.906250e-03
  0.12500000  0.31250000  0.00000000  3.906250e-03
  0.12500000  0.37500000  0.00000000  3.906250e-03
  0.12500000  0.43750000  0.00000000  3.906250e-03
  0.12500000  0.50000000  0.00000000  3.906250e-03
  0.12500000  0.56250000  0.00000000  3.906250e-03
  0.12500000  0.62500000  0.00000000  3.906250e-03
  0.12500000  0.68750000  0.00000000  3.906250e-03
  0.12500000  0.75000000  0.00000000  3.906250e-03
  0.12500000  0.81250000  0.00000000  3.906250e-03
  0.12500000  0.87500000  0.00000000  3.906250e-03
  0.12500000  0.93750000  0.00000000  3.906250e-03
  0.18750000  0.00000000  0.00000000  3.906250e-03
  0.18750000  0.06250000  0.00000000  3.906250e-03
  0.18750000  0.12500000  0.00000000  3.906250e-03
  0.18750000  0.18750000  0.00000000  3.906250e-03
  0.18750000  0.25000000  0.00000000  3.906250e-03
  0.18750000  0.31250000  0.00000000  3.906250e-03
  0.18750000  0.37500000  0.00000000  3.906250e-03
  0.18750000  0.43750000  0.00000000  3.906250e-03
  0.18750000  0.50000000  0.00000000  3.906250e-03
  0.18750000  0.56250000  0.00000000  3.906250e-03
  0.18750000  0.62500000  0.00000000  3.906250e-03
  0.18750000  0.68750000  0.00000000  3.906250e-03
  0.18750000  0.75000000  0.00000000  3.906250e-03
  0.18750000  0.81250000  0.00000000  3.906250e-03
  0.18750000  0.87500000  0.00000000  3.906250e-03
  0.18750000  0.93750000  0.00000000  3.906250e-03
  0.25000000  0.00000000  0.00000000  3.906250e-03
  0.25000000  0.06250000  0.00000000  3.906250e-03
  0.25000000  0.12500000  0.00000000  3.906250e-03
  0.25000000  0.18750000  0.00000000  3.906250e-03
  0.25000000  0.25000000  0.00000000  3.906250e-03
  0.25000000  0.31250000  0.00000000  3.906250e-03
  0.25000000  0.37500000  0.00000000  3.906250e-03
  0.25000000  0.43750000  0.00000000  3.906250e-03
  0.25000000  0.50000000  0.00000000  3.906250e-03
  0.25000000  0.56250000  0.00000000  3.906250e-03
  0.25000000  0.62500000  0.00000000  3.906250e-03
  0.25000000  0.68750000  0.00000000  3.906250e-03
  0.25000000  0.75000000  0.00000000  3.906250e-03
  0.25000000  0.81250000  0.00000000  3.906250e-03
  0.25000000  0.87500000  0.00000000  3.906250e-03
  0.25000000  0.93750000  0.00000000  3.906250e-03
  0.31250000  0.00000000  0.00000000  3.906250e-03
  0.31250000  0.06250000  0.00000000  3.906250e-03
  0.31250000  0.12500000  0.00000000  3.906250e-03
  0.31250000  0.18750000  0.00000000  3.906250e-03
  0.31250000  0.25000000  0.00000000  3.906250e-03
  0.31250000  0.31250000  0.00000000  3.906250e-03
  0.31250000  0.37500000  0.00000000  3.906250e-03
  0.31250000  0.43750000  0.00000000  3.906250e-03
  0.31250000  0.50000000  0.00000000  3.906250e-03
  0.31250000  0.56250000  0.00000000  3.906250e-03
  0.31250000  0.62500000  0.00000000  3.906250e-03
  0.31250000  0.68750000  0.00000000  3.906250e-03
  0.31250000  0.75000000  0.00000000  3.906250e-03
  0.31250000  0.81250000  0.00000000  3.906250e-03
  0.31250000  0.87500000  0.00000000  3.906250e-03
  0.31250000  0.93750000  0.00000000  3.906250e-03
  0.37500000  0.00000000  0.00000000  3.906250e-03
  0.37500000  0.06250000  0.00000000  3.906250e-03
  0.37500000  0.12500000  0.00000000  3.906250e-03
  0.37500000  0.18750000  0.00000000  3.906250e-03
  0.37500000  0.25000000  0.00000000  3.906250e-03
  0.37500000  0.31250000  0.00000000  3.906250e-03
  0.37500000  0.37500000  0.00000000  3.906250e-03
  0.37500000  0.43750000  0.00000000  3.906250e-03
  0.37500000  0.50000000  0.00000000  3.906250e-03
  0.37500000  0.56250000  0.00000000  3.906250e-03
  0.37500000  0.62500000  0.00000000  3.906250e-03
  0.37500000  0.68750000  0.00000000  3.906250e-03
  0.37500000  0.75000000  0.00000000  3.906250e-03
  0.37500000  0.81250000  0.00000000  3.906250e-03
  0.37500000  0.87500000  0.00000000  3.906250e-03
  0.37500000  0.93750000  0.00000000  3.906250e-03
  0.43750000  0.00000000  0.00000000  3.906250e-03
  0.43750000  0.06250000  0.00000000  3.906250e-03
  0.43750000  0.12500000  0.00000000  3.906250e-03
  0.43750000  0.18750000  0.00000000  3.906250e-03
  0.43750000  0.25000000  0.00000000  3.906250e-03
  0.43750000  0.31250000  0.00000000  3.906250e-03
  0.43750000  0.37500000  0.00000000  3.906250e-03
  0.43750000  0.43750000  0.00000000  3.906250e-03
  0.43750000  0.50000000  0.00000000  3.906250e-03
  0.43750000  0.56250000  0.00000000  3.906250e-03
  0.43750000  0.62500000  0.00000000  3.906250e-03
  0.43750000  0.68750000  0.00000000  3.906250e-03
  0.43750000  0.75000000  0.00000000  3.906250e-03
  0.43750000  0.81250000  0.00000000  3.906250e-03
  0.43750000  0.87500000  0.00000000  3.906250e-03
  0.43750000  0.93750000  0.00000000  3.906250e-03
  0.50000000  0.00000000  0.00000000  3.906250e-03
  0.50000000  0.06250000  0.00000000  3.906250e-03
  0.50000000  0.12500000  0.00000000  3.906250e-03
  0.50000000  0.18750000  0.00000000  3.906250e-03
  0.50000000  0.25000000  0.00000000  3.906250e-03
  0.50000000  0.31250000  0.00000000  3.906250e-03
  0.50000000  0.37500000  0.00000000  3.906250e-03
  0.50000000  0.43750000  0.00000000  3.906250e-03
  0.50000000  0.50000000  0.00000000  3.906250e-03
  0.50000000  0.56250000  0.00000000  3.906250e-03
  0.50000000  0.62500000  0.00000000  3.906250e-03
  0.50000000  0.68750000  0.00000000  3.906250e-03
  0.50000000  0.75000000  0.00000000  3.906250e-03
  0.50000000  0.81250000  0.00000000  3.906250e-03
  0.50000000  0.87500000  0.00000000  3.906250e-03
  0.50000000  0.93750000  0.00000000  3.906250e-03
  0.56250000  0.00000000  0.00000000  3.906250e-03
  0.56250000  0.06250000  0.00000000  3.906250e-03
  0.56250000  0.12500000  0.00000000  3.906250e-03
  0.56250000  0.18750000  0.00000000  3.906250e-03
  0.56250000  0.25000000  0.00000000  3.906250e-03
  0.56250000  0.31250000  0.00000000  3.906250e-03
  0.56250000  0.37500000  0.00000000  3.906250e-03
  0.56250000  0.43750000  0.00000000  3.906250e-03
  0.56250000  0.50000000  0.00000000  3.906250e-03
  0.56250000  0.56250000  0.00000000  3.906250e-03
  0.56250000  0.62500000  0.00000000  3.906250e-03
  0.56250000  0.68750000  0.00000000  3.906250e-03
  0.56250000  0.75000000  0.00000000  3.906250e-03
  0.56250000  0.81250000  0.00000000  3.906250e-03
  0.56250000  0.87500000  0.00000000  3.906250e-03
  0.56250000  0.93750000  0.00000000  3.906250e-03
  0.62500000  0.00000000  0.00000000  3.906250e-03
  0.62500000  0.06250000  0.00000000  3.906250e-03
  0.62500000  0.12500000  0.00000000  3.906250e-03
  0.62500000  0.18750000  0.00000000  3.906250e-03
  0.62500000  0.25000000  0.00000000  3.906250e-03
  0.62500000  0.31250000  0.00000000  3.906250e-03
  0.62500000  0.37500000  0.00000000  3.906250e-03
  0.62500000  0.43750000  0.00000000  3.906250e-03
  0.62500000  0.50000000  0.00000000  3.906250e-03
  0.62500000  0.56250000  0.00000000  3.906250e-03
  0.62500000  0.62500000  0.00000000  3.906250e-03
  0.62500000  0.68750000  0.00000000  3.906250e-03
  0.62500000  0.75000000  0.00000000  3.906250e-03
  0.62500000  0.81250000  0.00000000  3.906250e-03
  0.62500000  0.87500000  0.00000000  3.906250e-03
  0.62500000  0.93750000  0.00000000  3.906250e-03
  0.68750000  0.00000000  0.00000000  3.906250e-03
  0.68750000  0.06250000  0.00000000  3.906250e-03
  0.68750000  0.12500000  0.00000000  3.906250e-03
  0.68750000  0.18750000  0.00000000  3.906250e-03
  0.68750000  0.25000000  0.00000000  3.906250e-03
  0.68750000  0.31250000  0.00000000  3.906250e-03
  0.68750000  0.37500000  0.00000000  3.906250e-03
  0.68750000  0.43750000  0.00000000  3.906250e-03
  0.68750000  0.50000000  0.00000000  3.906250e-03
  0.68750000  0.56250000  0.00000000  3.906250e-03
  0.68750000  0.62500000  0.00000000  3.906250e-03
  0.68750000  0.68750000  0.00000000  3.906250e-03
  0.68750000  0.75000000  0.00000000  3.906250e-03
  0.68750000  0.81250000  0.00000000  3.906250e-03
  0.68750000  0.87500000  0.00000000  3.906250e-03
  0.68750000  0.93750000  0.00000000  3.906250e-03
  0.75000000  0.00000000  0.00000000  3.906250e-03
  0.75000000  0.06250000  0.00000000  3.906250e-03
  0.75000000  0.12500000  0.00000000  3.906250e-03
  0.75000000  0.18750000  0.00000000  3.906250e-03
  0.75000000  0.25000000  0.00000000  3.906250e-03
  0.75000000  0.31250000  0.00000000  3.906250e-03
  0.75000000  0.37500000  0.00000000  3.906250e-03
  0.75000000  0.43750000  0.00000000  3.906250e-03
  0.75000000  0.50000000  0.00000000  3.906250e-03
  0.75000000  0.56250000  0.00000000  3.906250e-03
  0.75000000  0.62500000  0.00000000  3.906250e-03
  0.75000000  0.68750000  0.00000000  3.906250e-03
  0.75000000  0.75000000  0.00000000  3.906250e-03
  0.75000000  0.81250000  0.00000000  3.906250e-03
  0.75000000  0.87500000  0.00000000  3.906250e-03
  0.75000000  0.93750000  0.00000000  3.906250e-03
  0.81250000  0.00000000  0.00000000  3.906250e-03
  0.81250000  0.06250000  0.00000000  3.906250e-03
  0.81250000  0.12500000  0.00000000  3.906250e-03
  0.81250000  0.18750000  0.00000000  3.906250e-03
  0.81250000  0.25000000  0.00000000  3.906250e-03
  0.81250000  0.31250000  0.00000000  3.906250e-03
  0.81250000  0.37500000  0.00000000  3.906250e-03
  0.81250000  0.43750000  0.00000000  3.906250e-03
  0.81250000  0.50000000  0.00000000  3.906250e-03
  0.81250000  0.56250000  0.00000000  3.906250e-03
  0.81250000  0.62500000  0.00000000  3.906250e-03
  0.81250000  0.68750000  0.00000000  3.906250e-03
  0.81250000  0.75000000  0.00000000  3.906250e-03
  0.81250000  0.81250000  0.00000000  3.906250e-03
  0.81250000  0.87500000  0.00000000  3.906250e-03
  0.81250000  0.93750000  0.00000000  3.906250e-03
  0.87500000  0.00000000  0.00000000  3.906250e-03
  0.87500000  0.06250000  0.00000000  3.906250e-03
  0.87500000  0.12500000  0.00000000  3.906250e-03
  0.87500000  0.18750000  0.00000000  3.906250e-03
  0.87500000  0.25000000  0.00000000  3.906250e-03
  0.87500000  0.31250000  0.00000000  3.906250e-03
  0.87500000  0.37500000  0.00000000  3.906250e-03
  0.87500000  0.43750000  0.00000000  3.906250e-03
  0.87500000  0.50000000  0.00000000  3.906250e-03
  0.87500000  0.56250000  0.00000000  3.906250e-03
  0.87500000  0.62500000  0.00000000  3.906250e-03
  0.87500000  0.68750000  0.00000000  3.906250e-03
  0.87500000  0.75000000  0.00000000  3.906250e-03
  0.87500000  0.81250000  0.00000000  3.906250e-03
  0.87500000  0.87500000  0.00000000  3.906250e-03
  0.87500000  0.93750000  0.00000000  3.906250e-03
  0.93750000  0.00000000  0.00000000  3.906250e-03
  0.93750000  0.06250000  0.00000000  3.906250e-03
  0.93750000  0.12500000  0.00000000  3.906250e-03
  0.93750000  0.18750000  0.00000000  3.906250e-03
  0.93750000  0.25000000  0.00000000  3.906250e-03
  0.93750000  0.31250000  0.00000000  3.906250e-03
  0.93750000  0.37500000  0.00000000  3.906250e-03
  0.93750000  0.43750000  0.00000000  3.906250e-03
  0.93750000  0.50000000  0.00000000  3.906250e-03
  0.93750000  0.56250000  0.00000000  3.906250e-03
  0.93750000  0.62500000  0.00000000  3.906250e-03
  0.93750000  0.68750000  0.00000000  3.906250e-03
  0.93750000  0.75000000  0.00000000  3.906250e-03
  0.93750000  0.81250000  0.00000000  3.906250e-03
  0.93750000  0.87500000  0.00000000  3.906250e-03
  0.93750000  0.93750000  0.00000000  3.906250e-03
end kpoints