&bands
outdir = './outdir'
prefix = 'Al'
filband = 'bands.dat'
/