&control
    calculation = 'nscf'
    prefix = 'Al'
    outdir = './outdir'
    pseudo_dir = '../PP'
    etot_conv_thr = 1e-5
    forc_conv_thr = 1e-4
/
&system
    ibrav=0
    nat=1
    ntyp=1
    ecutwfc=30
    ecutrho=240
    occupations='tetrahedra_opt'
    smearing    = "gaussian"
    degauss=0.03
/
&electrons
    conv_thr=1e-8
/

&ions
/

&cell
/

ATOMIC_SPECIES
Al     26.981538  Al.pbe-n-kjpaw_psl.1.0.0.UPF


CELL_PARAMETERS angstrom
   2.857800727  -0.000000000  -0.000000000
   1.428900363   2.474928028  -0.000000000
   1.428900363   0.824976009   2.333385891


ATOMIC_POSITIONS {crystal}
Al           0.0000000000       0.0000000000       0.0000000000 

K_POINTS (automatic)
  16 16 16 0 0 0