&PROJWFC
  prefix= 'Al',
  outdir= './outdir/',
  filpdos= 'pdos.dat'
  kresolveddos = .true.
/